nK = 1096;
nT = 6;
nI = 14;
L = 29;
TT = 231;
np = 1;
nc = 3;
b = [53, 40, 34, 50, 30, 65, 49, 43, 34, 57, 59, 51, 34, 36];
d = [139, 115, 144, 96, 127, 147, 94, 77, 148, 136, 132, 78, 146, 128];
m = [2.5, 2.2, 1.1, 2.3, 1.3, 1.7, 1.6, 1.7, 1.8, 1.9, 2.4, 2.2, 1.7, 2.1];
pt = [0.22, 0.35, 0.2, 0.22, 0.31, 0.3];
st = [12.32, 17.5, 11.8, 12.76, 13.95, 16.8];
arc = {<1, 0, 1, 1, 0, 0, 0, [1, 1, 1, 1, 1, 1]>, <2, 1, 2, 1, 0, 0, 0, [1, 1, 1, 1, 1, 1]>, <3, 2, 3, 1, 0, 0, 0, [1, 1, 1, 1, 1, 1]>, <4, 3, 4, 1, 0, 0, 0, [1, 1, 1, 1, 1, 1]>, <5, 4, 5, 1, 0, 0, 0, [1, 1, 1, 1, 1, 1]>, <6, 5, 6, 1, 0, 0, 0, [1, 1, 1, 1, 1, 1]>, <7, 6, 7, 1, 0, 0, 0, [1, 1, 1, 1, 1, 1]>, <8, 7, 8, 1, 0, 0, 0, [1, 1, 1, 1, 1, 1]>, <9, 8, 9, 1, 0, 0, 0, [1, 1, 1, 1, 1, 1]>, <10, 9, 10, 1, 0, 0, 0, [1, 1, 1, 1, 1, 1]>, <11, 10, 11, 1, 0, 0, 0, [1, 1, 1, 1, 1, 1]>, <12, 11, 12, 1, 0, 0, 0, [1, 1, 1, 1, 1, 1]>, <13, 12, 13, 1, 0, 0, 0, [1, 1, 1, 1, 1, 1]>, <14, 13, 14, 1, 0, 0, 0, [1, 1, 1, 1, 1, 1]>, <15, 14, 15, 1, 0, 0, 0, [1, 1, 1, 1, 1, 1]>, <16, 15, 16, 1, 0, 0, 0, [1, 1, 1, 1, 1, 1]>, <17, 16, 17, 1, 0, 0, 0, [1, 1, 1, 1, 1, 1]>, <18, 17, 18, 1, 0, 0, 0, [1, 1, 1, 1, 1, 1]>, <19, 18, 19, 1, 0, 0, 0, [1, 1, 1, 1, 1, 1]>, <20, 19, 20, 1, 0, 0, 0, [1, 1, 1, 1, 1, 1]>, <21, 20, 21, 1, 0, 0, 0, [1, 1, 1, 1, 1, 1]>, <22, 21, 22, 1, 0, 0, 0, [1, 1, 1, 1, 1, 1]>, <23, 22, 23, 1, 0, 0, 0, [1, 1, 1, 1, 1, 1]>, <24, 23, 24, 1, 0, 0, 0, [1, 1, 1, 1, 1, 1]>, <25, 24, 25, 1, 0, 0, 0, [1, 1, 1, 1, 1, 1]>, <26, 25, 26, 1, 0, 0, 0, [1, 1, 1, 1, 1, 1]>, <27, 26, 27, 1, 0, 0, 0, [1, 1, 1, 1, 1, 1]>, <28, 27, 28, 1, 0, 0, 0, [1, 1, 1, 1, 1, 1]>, <29, 28, 29, 1, 0, 0, 0, [1, 1, 1, 1, 1, 1]>, <30, 2, 12, 10, 1, 0, 0, [1, 0, 0, 1, 1, 1]>, <31, 3, 13, 10, 1, 0, 0, [1, 0, 0, 1, 1, 1]>, <32, 4, 14, 10, 1, 0, 0, [1, 0, 0, 1, 1, 1]>, <33, 5, 15, 10, 1, 0, 0, [1, 0, 0, 1, 1, 1]>, <34, 10, 20, 10, 1, 0, 0, [1, 0, 0, 1, 1, 1]>, <35, 11, 21, 10, 1, 0, 0, [1, 0, 0, 1, 1, 1]>, <36, 12, 22, 10, 1, 0, 0, [1, 0, 0, 1, 1, 1]>, <37, 14, 24, 10, 1, 0, 0, [1, 0, 0, 1, 1, 1]>, <38, 15, 25, 10, 1, 0, 0, [1, 0, 0, 1, 1, 1]>, <39, 16, 26, 10, 1, 0, 0, [1, 0, 0, 1, 1, 1]>, <40, 17, 27, 10, 1, 0, 0, [1, 0, 0, 1, 1, 1]>, <41, 18, 28, 10, 1, 0, 0, [1, 0, 0, 1, 1, 1]>, <42, 19, 29, 10, 1, 0, 0, [1, 0, 0, 1, 1, 1]>, <43, 2, 12, 10, 2, 0, 0, [0, 1, 1, 1, 1, 0]>, <44, 3, 13, 10, 2, 0, 0, [0, 1, 1, 1, 1, 0]>, <45, 4, 14, 10, 2, 0, 0, [0, 1, 1, 1, 1, 0]>, <46, 5, 15, 10, 2, 0, 0, [0, 1, 1, 1, 1, 0]>, <47, 10, 20, 10, 2, 0, 0, [0, 1, 1, 1, 1, 0]>, <48, 11, 21, 10, 2, 0, 0, [0, 1, 1, 1, 1, 0]>, <49, 12, 22, 10, 2, 0, 0, [0, 1, 1, 1, 1, 0]>, <50, 14, 24, 10, 2, 0, 0, [0, 1, 1, 1, 1, 0]>, <51, 15, 25, 10, 2, 0, 0, [0, 1, 1, 1, 1, 0]>, <52, 16, 26, 10, 2, 0, 0, [0, 1, 1, 1, 1, 0]>, <53, 17, 27, 10, 2, 0, 0, [0, 1, 1, 1, 1, 0]>, <54, 18, 28, 10, 2, 0, 0, [0, 1, 1, 1, 1, 0]>, <55, 19, 29, 10, 2, 0, 0, [0, 1, 1, 1, 1, 0]>, <56, 1, 12, 11, 3, 0, 0, [1, 0, 0, 1, 1, 1]>, <57, 2, 13, 11, 3, 0, 0, [1, 0, 0, 1, 1, 1]>, <58, 3, 14, 11, 3, 0, 0, [1, 0, 0, 1, 1, 1]>, <59, 4, 15, 11, 3, 0, 0, [1, 0, 0, 1, 1, 1]>, <60, 5, 16, 11, 3, 0, 0, [1, 0, 0, 1, 1, 1]>, <61, 9, 20, 11, 3, 0, 0, [1, 0, 0, 1, 1, 1]>, <62, 10, 21, 11, 3, 0, 0, [1, 0, 0, 1, 1, 1]>, <63, 11, 22, 11, 3, 0, 0, [1, 0, 0, 1, 1, 1]>, <64, 12, 23, 11, 3, 0, 0, [1, 0, 0, 1, 1, 1]>, <65, 13, 24, 11, 3, 0, 0, [1, 0, 0, 1, 1, 1]>, <66, 14, 25, 11, 3, 0, 0, [1, 0, 0, 1, 1, 1]>, <67, 15, 26, 11, 3, 0, 0, [1, 0, 0, 1, 1, 1]>, <68, 16, 27, 11, 3, 0, 0, [1, 0, 0, 1, 1, 1]>, <69, 17, 28, 11, 3, 0, 0, [1, 0, 0, 1, 1, 1]>, <70, 18, 29, 11, 3, 0, 0, [1, 0, 0, 1, 1, 1]>, <71, 3, 12, 9, 4, 0, 1, [1, 1, 1, 1, 0, 0]>, <72, 4, 13, 9, 4, 0, 1, [1, 1, 1, 1, 0, 0]>, <73, 5, 14, 9, 4, 0, 1, [1, 1, 1, 1, 0, 0]>, <74, 11, 20, 9, 4, 0, 1, [1, 1, 1, 1, 0, 0]>, <75, 12, 21, 9, 4, 0, 1, [1, 1, 1, 1, 0, 0]>, <76, 15, 24, 9, 4, 0, 1, [1, 1, 1, 1, 0, 0]>, <77, 16, 25, 9, 4, 0, 1, [1, 1, 1, 1, 0, 0]>, <78, 17, 26, 9, 4, 0, 1, [1, 1, 1, 1, 0, 0]>, <79, 18, 27, 9, 4, 0, 1, [1, 1, 1, 1, 0, 0]>, <80, 19, 28, 9, 4, 0, 1, [1, 1, 1, 1, 0, 0]>, <81, 20, 29, 9, 4, 0, 1, [1, 1, 1, 1, 0, 0]>, <82, 1, 12, 11, 5, 0, 0, [0, 0, 1, 1, 1, 1]>, <83, 2, 13, 11, 5, 0, 0, [0, 0, 1, 1, 1, 1]>, <84, 3, 14, 11, 5, 0, 0, [0, 0, 1, 1, 1, 1]>, <85, 4, 15, 11, 5, 0, 0, [0, 0, 1, 1, 1, 1]>, <86, 5, 16, 11, 5, 0, 0, [0, 0, 1, 1, 1, 1]>, <87, 9, 20, 11, 5, 0, 0, [0, 0, 1, 1, 1, 1]>, <88, 10, 21, 11, 5, 0, 0, [0, 0, 1, 1, 1, 1]>, <89, 11, 22, 11, 5, 0, 0, [0, 0, 1, 1, 1, 1]>, <90, 12, 23, 11, 5, 0, 0, [0, 0, 1, 1, 1, 1]>, <91, 13, 24, 11, 5, 0, 0, [0, 0, 1, 1, 1, 1]>, <92, 14, 25, 11, 5, 0, 0, [0, 0, 1, 1, 1, 1]>, <93, 15, 26, 11, 5, 0, 0, [0, 0, 1, 1, 1, 1]>, <94, 16, 27, 11, 5, 0, 0, [0, 0, 1, 1, 1, 1]>, <95, 17, 28, 11, 5, 0, 0, [0, 0, 1, 1, 1, 1]>, <96, 18, 29, 11, 5, 0, 0, [0, 0, 1, 1, 1, 1]>, <97, 3, 12, 9, 6, 0, 1, [1, 1, 0, 0, 1, 1]>, <98, 4, 13, 9, 6, 0, 1, [1, 1, 0, 0, 1, 1]>, <99, 5, 14, 9, 6, 0, 1, [1, 1, 0, 0, 1, 1]>, <100, 11, 20, 9, 6, 0, 1, [1, 1, 0, 0, 1, 1]>, <101, 12, 21, 9, 6, 0, 1, [1, 1, 0, 0, 1, 1]>, <102, 15, 24, 9, 6, 0, 1, [1, 1, 0, 0, 1, 1]>, <103, 16, 25, 9, 6, 0, 1, [1, 1, 0, 0, 1, 1]>, <104, 17, 26, 9, 6, 0, 1, [1, 1, 0, 0, 1, 1]>, <105, 18, 27, 9, 6, 0, 1, [1, 1, 0, 0, 1, 1]>, <106, 19, 28, 9, 6, 0, 1, [1, 1, 0, 0, 1, 1]>, <107, 20, 29, 9, 6, 0, 1, [1, 1, 0, 0, 1, 1]>, <108, 2, 12, 10, 7, 0, 0, [1, 1, 0, 0, 1, 1]>, <109, 3, 13, 10, 7, 0, 0, [1, 1, 0, 0, 1, 1]>, <110, 4, 14, 10, 7, 0, 0, [1, 1, 0, 0, 1, 1]>, <111, 5, 15, 10, 7, 0, 0, [1, 1, 0, 0, 1, 1]>, <112, 10, 20, 10, 7, 0, 0, [1, 1, 0, 0, 1, 1]>, <113, 11, 21, 10, 7, 0, 0, [1, 1, 0, 0, 1, 1]>, <114, 12, 22, 10, 7, 0, 0, [1, 1, 0, 0, 1, 1]>, <115, 14, 24, 10, 7, 0, 0, [1, 1, 0, 0, 1, 1]>, <116, 15, 25, 10, 7, 0, 0, [1, 1, 0, 0, 1, 1]>, <117, 16, 26, 10, 7, 0, 0, [1, 1, 0, 0, 1, 1]>, <118, 17, 27, 10, 7, 0, 0, [1, 1, 0, 0, 1, 1]>, <119, 18, 28, 10, 7, 0, 0, [1, 1, 0, 0, 1, 1]>, <120, 19, 29, 10, 7, 0, 0, [1, 1, 0, 0, 1, 1]>, <121, 0, 12, 12, 8, 0, 1, [1, 1, 1, 0, 0, 1]>, <122, 1, 13, 12, 8, 0, 1, [1, 1, 1, 0, 0, 1]>, <123, 2, 14, 12, 8, 0, 1, [1, 1, 1, 0, 0, 1]>, <124, 3, 15, 12, 8, 0, 1, [1, 1, 1, 0, 0, 1]>, <125, 4, 16, 12, 8, 0, 1, [1, 1, 1, 0, 0, 1]>, <126, 5, 17, 12, 8, 0, 1, [1, 1, 1, 0, 0, 1]>, <127, 8, 20, 12, 8, 0, 1, [1, 1, 1, 0, 0, 1]>, <128, 9, 21, 12, 8, 0, 1, [1, 1, 1, 0, 0, 1]>, <129, 10, 22, 12, 8, 0, 1, [1, 1, 1, 0, 0, 1]>, <130, 11, 23, 12, 8, 0, 1, [1, 1, 1, 0, 0, 1]>, <131, 12, 24, 12, 8, 0, 1, [1, 1, 1, 0, 0, 1]>, <132, 13, 25, 12, 8, 0, 1, [1, 1, 1, 0, 0, 1]>, <133, 14, 26, 12, 8, 0, 1, [1, 1, 1, 0, 0, 1]>, <134, 15, 27, 12, 8, 0, 1, [1, 1, 1, 0, 0, 1]>, <135, 16, 28, 12, 8, 0, 1, [1, 1, 1, 0, 0, 1]>, <136, 17, 29, 12, 8, 0, 1, [1, 1, 1, 0, 0, 1]>, <137, 2, 12, 10, 9, 0, 1, [1, 0, 0, 1, 1, 1]>, <138, 3, 13, 10, 9, 0, 1, [1, 0, 0, 1, 1, 1]>, <139, 4, 14, 10, 9, 0, 1, [1, 0, 0, 1, 1, 1]>, <140, 5, 15, 10, 9, 0, 1, [1, 0, 0, 1, 1, 1]>, <141, 10, 20, 10, 9, 0, 1, [1, 0, 0, 1, 1, 1]>, <142, 11, 21, 10, 9, 0, 1, [1, 0, 0, 1, 1, 1]>, <143, 12, 22, 10, 9, 0, 1, [1, 0, 0, 1, 1, 1]>, <144, 14, 24, 10, 9, 0, 1, [1, 0, 0, 1, 1, 1]>, <145, 15, 25, 10, 9, 0, 1, [1, 0, 0, 1, 1, 1]>, <146, 16, 26, 10, 9, 0, 1, [1, 0, 0, 1, 1, 1]>, <147, 17, 27, 10, 9, 0, 1, [1, 0, 0, 1, 1, 1]>, <148, 18, 28, 10, 9, 0, 1, [1, 0, 0, 1, 1, 1]>, <149, 19, 29, 10, 9, 0, 1, [1, 0, 0, 1, 1, 1]>, <150, 2, 12, 10, 10, 0, 0, [0, 1, 1, 1, 1, 0]>, <151, 3, 13, 10, 10, 0, 0, [0, 1, 1, 1, 1, 0]>, <152, 4, 14, 10, 10, 0, 0, [0, 1, 1, 1, 1, 0]>, <153, 5, 15, 10, 10, 0, 0, [0, 1, 1, 1, 1, 0]>, <154, 10, 20, 10, 10, 0, 0, [0, 1, 1, 1, 1, 0]>, <155, 11, 21, 10, 10, 0, 0, [0, 1, 1, 1, 1, 0]>, <156, 12, 22, 10, 10, 0, 0, [0, 1, 1, 1, 1, 0]>, <157, 14, 24, 10, 10, 0, 0, [0, 1, 1, 1, 1, 0]>, <158, 15, 25, 10, 10, 0, 0, [0, 1, 1, 1, 1, 0]>, <159, 16, 26, 10, 10, 0, 0, [0, 1, 1, 1, 1, 0]>, <160, 17, 27, 10, 10, 0, 0, [0, 1, 1, 1, 1, 0]>, <161, 18, 28, 10, 10, 0, 0, [0, 1, 1, 1, 1, 0]>, <162, 19, 29, 10, 10, 0, 0, [0, 1, 1, 1, 1, 0]>, <163, 1, 12, 11, 11, 0, 0, [1, 1, 1, 1, 0, 0]>, <164, 2, 13, 11, 11, 0, 0, [1, 1, 1, 1, 0, 0]>, <165, 3, 14, 11, 11, 0, 0, [1, 1, 1, 1, 0, 0]>, <166, 4, 15, 11, 11, 0, 0, [1, 1, 1, 1, 0, 0]>, <167, 5, 16, 11, 11, 0, 0, [1, 1, 1, 1, 0, 0]>, <168, 9, 20, 11, 11, 0, 0, [1, 1, 1, 1, 0, 0]>, <169, 10, 21, 11, 11, 0, 0, [1, 1, 1, 1, 0, 0]>, <170, 11, 22, 11, 11, 0, 0, [1, 1, 1, 1, 0, 0]>, <171, 12, 23, 11, 11, 0, 0, [1, 1, 1, 1, 0, 0]>, <172, 13, 24, 11, 11, 0, 0, [1, 1, 1, 1, 0, 0]>, <173, 14, 25, 11, 11, 0, 0, [1, 1, 1, 1, 0, 0]>, <174, 15, 26, 11, 11, 0, 0, [1, 1, 1, 1, 0, 0]>, <175, 16, 27, 11, 11, 0, 0, [1, 1, 1, 1, 0, 0]>, <176, 17, 28, 11, 11, 0, 0, [1, 1, 1, 1, 0, 0]>, <177, 18, 29, 11, 11, 0, 0, [1, 1, 1, 1, 0, 0]>, <178, 4, 12, 8, 12, 0, 0, [1, 0, 0, 1, 1, 1]>, <179, 5, 13, 8, 12, 0, 0, [1, 0, 0, 1, 1, 1]>, <180, 11, 19, 8, 12, 0, 0, [1, 0, 0, 1, 1, 1]>, <181, 12, 20, 8, 12, 0, 0, [1, 0, 0, 1, 1, 1]>, <182, 16, 24, 8, 12, 0, 0, [1, 0, 0, 1, 1, 1]>, <183, 17, 25, 8, 12, 0, 0, [1, 0, 0, 1, 1, 1]>, <184, 18, 26, 8, 12, 0, 0, [1, 0, 0, 1, 1, 1]>, <185, 19, 27, 8, 12, 0, 0, [1, 0, 0, 1, 1, 1]>, <186, 20, 28, 8, 12, 0, 0, [1, 0, 0, 1, 1, 1]>, <187, 0, 12, 12, 13, 1, 0, [1, 1, 1, 1, 0, 0]>, <188, 1, 13, 12, 13, 1, 0, [1, 1, 1, 1, 0, 0]>, <189, 2, 14, 12, 13, 1, 0, [1, 1, 1, 1, 0, 0]>, <190, 3, 15, 12, 13, 1, 0, [1, 1, 1, 1, 0, 0]>, <191, 4, 16, 12, 13, 1, 0, [1, 1, 1, 1, 0, 0]>, <192, 5, 17, 12, 13, 1, 0, [1, 1, 1, 1, 0, 0]>, <193, 8, 20, 12, 13, 1, 0, [1, 1, 1, 1, 0, 0]>, <194, 9, 21, 12, 13, 1, 0, [1, 1, 1, 1, 0, 0]>, <195, 10, 22, 12, 13, 1, 0, [1, 1, 1, 1, 0, 0]>, <196, 11, 23, 12, 13, 1, 0, [1, 1, 1, 1, 0, 0]>, <197, 12, 24, 12, 13, 1, 0, [1, 1, 1, 1, 0, 0]>, <198, 13, 25, 12, 13, 1, 0, [1, 1, 1, 1, 0, 0]>, <199, 14, 26, 12, 13, 1, 0, [1, 1, 1, 1, 0, 0]>, <200, 15, 27, 12, 13, 1, 0, [1, 1, 1, 1, 0, 0]>, <201, 16, 28, 12, 13, 1, 0, [1, 1, 1, 1, 0, 0]>, <202, 17, 29, 12, 13, 1, 0, [1, 1, 1, 1, 0, 0]>, <203, 4, 11, 7, 14, 0, 0, [1, 0, 0, 1, 1, 1]>, <204, 5, 12, 7, 14, 0, 0, [1, 0, 0, 1, 1, 1]>, <205, 11, 18, 7, 14, 0, 0, [1, 0, 0, 1, 1, 1]>, <206, 12, 19, 7, 14, 0, 0, [1, 0, 0, 1, 1, 1]>, <207, 17, 24, 7, 14, 0, 0, [1, 0, 0, 1, 1, 1]>, <208, 18, 25, 7, 14, 0, 0, [1, 0, 0, 1, 1, 1]>, <209, 19, 26, 7, 14, 0, 0, [1, 0, 0, 1, 1, 1]>, <210, 20, 27, 7, 14, 0, 0, [1, 0, 0, 1, 1, 1]>};
